//----------------------------------------------------------
//Important variables
//----------------------------------------------------------

d := 70 // cylinder of diameter
l := 1350// cylinder height
ACo := 31e-12
MCo := 1440e3
KCo := 410e3
ANi := 8e-12
MNi := 490e3
KNi := -5e3
cl := 2.5
alpha = 0.5
//----------------------------------------------------------
//Universe and cells
//----------------------------------------------------------

SetGridSize(d/cl,d/cl,l/cl)
SetCellSize(2.5e-9, 2.5e-9, 2.5e-9)

//----------------------------------------------------------
//Geometry
//----------------------------------------------------------

a := cylinder(70e-9, 1350e-9)
setgeom( a )
saveas(m, "geom")

//----------------------------------------------------------
//Regions
//----------------------------------------------------------

defregion(1, zrange(-675e-9, -225e-9))  // first cylinder 
defregion(2, zrange(-225e-9,225e-9))   // second cylinder  
defregion(3, zrange(225e-9, 675e-9))   // third cylinder   
save(regions)

//----------------------------------------------------------
//Parameters region 1
//----------------------------------------------------------
  
Msat.setregion(1, MCo) //material parameters of Co (Hard)
Aex.setregion(1, ACo)
Ku1.setregion(1, KCo)
anisU.setregion(1, vector(0,0,1))

     
//----------------------------------------------------------
//Parameters region 2
//----------------------------------------------------------

Msat.setregion(2, MCo) //material parameters of Py (Soft)
Aex.setregion(2, ACo)
Ku1.setregion(2, KCo)
anisU.setregion(2, vector(0,0,1))

//----------------------------------------------------------
//Parameters region 3
//----------------------------------------------------------

Msat.setregion(3, MCo)    //material parameters of Co (Hard)
Aex.setregion(3, ACo)
Ku1.setregion(3, KCo)
anisU.setregion(3, vector(0,0,1))

//----------------------------------------------------------
//Vortex
//----------------------------------------------------------

m = uniform(0, 0.1, 1)

//----------------------------------------------------------
//Relax and Energy
//----------------------------------------------------------

saveas(m, "FerroZ")

TableAdd(m_full)
TableAdd(B_ext)
TableAdd(E_exch)
TableAdd(E_demag)
TableAdd(E_zeeman)
TableAdd(E_total)

runwhile(maxtorque > 1e-4) 
Tablesave()
Save(m)

